\ This file has been generated by DOcplex
\ ENCODING=ISO-8859-1
\Problem name: buses

Minimize
 obj: 500 nbBus40 + 400 nbBus30
Subject To
 kids: 40 nbBus40 + 30 nbBus30 >= 300

Bounds

Generals
 nbBus40 nbBus30
End
